benchmarks/bfuzz0/108902390796172151224743224017168732.smt2
(set-logic QF_FP)
(declare-const x0 (_ FloatingPoint 8 24))
(declare-const x1 (_ FloatingPoint 8 24))
(declare-const x2 (_ FloatingPoint 8 24))
(declare-const x3 (_ FloatingPoint 8 24))
(declare-const x4 (_ FloatingPoint 8 24))
(declare-const x5 (_ FloatingPoint 8 24))
(declare-const x6 (_ FloatingPoint 8 24))
(declare-const x7 (_ FloatingPoint 8 24))
(declare-const x8 (_ FloatingPoint 8 24))
(declare-const x9 (_ FloatingPoint 8 24))
(declare-const x10 (_ FloatingPoint 8 24))
(declare-const x11 (_ FloatingPoint 8 24))
(declare-const x12 (_ FloatingPoint 8 24))
(declare-const x13 (_ FloatingPoint 8 24))
(declare-const x14 (_ FloatingPoint 8 24))
(declare-const x15 (_ FloatingPoint 8 24))
(declare-const x16 (_ FloatingPoint 8 24))
(declare-const x17 (_ FloatingPoint 8 24))
(declare-const x18 (_ FloatingPoint 8 24))
(declare-const x19 (_ FloatingPoint 8 24))
(declare-const x20 (_ FloatingPoint 8 24))
(declare-const x21 (_ FloatingPoint 8 24))
(assert (fp.geq (fp.mul RNE x6 x5) (fp.div RNE x11 x2)))
(assert (fp.geq (fp.add RNE x15 x3) (fp.div RNE x9 x15)))
(assert (fp.leq (fp.mul RNE x14 x8) (fp.mul RNE x19 x7)))
(assert (fp.geq (fp.div RNE x3 x2) (fp.div RNE x5 x19)))
(assert (fp.geq (fp.neg x15) (fp.sub RNE x2 x11)))
(assert (fp.eq (fp.div RNE x0 x19) (fp.neg x18)))
(assert (fp.leq (fp.neg x6) (fp.sub RNE x17 x21)))
(assert (fp.gt (fp.neg x0) (fp.mul RNE x21 x4)))
(assert (fp.gt (fp.sub RNE x16 x3) (fp.sub RNE x1 x0)))
(assert (fp.lt (fp.neg x7) (fp.add RNE x5 x7)))
(assert (fp.gt (fp.sub RNE x5 x11) (fp.mul RNE x6 x3)))
(assert (fp.geq (fp.div RNE x0 x1) (fp.add RNE x18 x6)))
(assert (fp.gt (fp.sub RNE x7 x12) (fp.add RNE x21 x10)))
(assert (fp.leq (fp.div RNE x18 x7) (fp.div RNE x4 x14)))
(assert (fp.geq (fp.add RNE x14 x12) (fp.sub RNE x17 x17)))
(assert (fp.lt (fp.add RNE x1 x7) (fp.mul RNE x1 x7)))
(assert (fp.lt (fp.mul RNE x7 x16) (fp.add RNE x13 x9)))
(assert (fp.gt (fp.div RNE x11 x16) (fp.mul RNE x11 x4)))
(assert (fp.lt (fp.neg x0) (fp.neg x3)))
(assert (fp.eq (fp.div RNE x1 x20) (fp.sub RNE x7 x0)))
(check-sat)
