db/data/108902390796172151224743224017168732.z3.out
sat
-------------------
1218.488248853
